NAME: line_100_4
TYPE: TSP
COMMENT: line_100_4
DIMENSION: 100
EDGE_WEIGHT_TYPE: EUC_2D
NODE_COORD_SECTION
1 0.0 498.0
2 0.0 518.0
3 0.0 460.0
4 0.0 999.0
5 0.0 228.0
6 0.0 77.0
7 0.0 723.0
8 0.0 227.0
9 0.0 456.0
10 0.0 175.0
11 0.0 914.0
12 0.0 855.0
13 0.0 236.0
14 0.0 644.0
15 0.0 814.0
16 0.0 372.0
17 0.0 433.0
18 0.0 431.0
19 0.0 40.0
20 0.0 701.0
21 0.0 936.0
22 0.0 508.0
23 0.0 491.0
24 0.0 802.0
25 0.0 588.0
26 0.0 777.0
27 0.0 897.0
28 0.0 370.0
29 0.0 373.0
30 0.0 850.0
31 0.0 200.0
32 0.0 113.0
33 0.0 775.0
34 0.0 654.0
35 0.0 721.0
36 0.0 24.0
37 0.0 766.0
38 0.0 24.0
39 0.0 137.0
40 0.0 797.0
41 0.0 671.0
42 0.0 223.0
43 0.0 399.0
44 0.0 781.0
45 0.0 30.0
46 0.0 971.0
47 0.0 937.0
48 0.0 531.0
49 0.0 480.0
50 0.0 16.0
51 0.0 699.0
52 0.0 633.0
53 0.0 221.0
54 0.0 167.0
55 0.0 45.0
56 0.0 712.0
57 0.0 184.0
58 0.0 37.0
59 0.0 751.0
60 0.0 542.0
61 0.0 142.0
62 0.0 558.0
63 0.0 943.0
64 0.0 705.0
65 0.0 349.0
66 0.0 779.0
67 0.0 16.0
68 0.0 541.0
69 0.0 434.0
70 0.0 868.0
71 0.0 890.0
72 0.0 894.0
73 0.0 993.0
74 0.0 106.0
75 0.0 101.0
76 0.0 98.0
77 0.0 385.0
78 0.0 995.0
79 0.0 419.0
80 0.0 118.0
81 0.0 117.0
82 0.0 531.0
83 0.0 676.0
84 0.0 593.0
85 0.0 212.0
86 0.0 686.0
87 0.0 898.0
88 0.0 362.0
89 0.0 390.0
90 0.0 774.0
91 0.0 956.0
92 0.0 340.0
93 0.0 22.0
94 0.0 121.0
95 0.0 903.0
96 0.0 140.0
97 0.0 832.0
98 0.0 228.0
99 0.0 943.0
100 0.0 76.0
